NAME : Synth-n13-k3-s0
COMMENT : Synthetic small hard CVRP instance for quantum simulation
TYPE : CVRP
DIMENSION : 13
EDGE_WEIGHT_TYPE : EUC_2D
CAPACITY : 27
NODE_COORD_SECTION
1 50.000000 50.000000
2 53.160224 68.695417
3 44.608268 74.612855
4 21.517928 71.945512
5 33.578142 54.175544
6 25.889102 43.149947
7 27.360907 29.543185
8 47.214911 34.111112
9 53.938931 25.126337
10 76.388657 27.594503
11 67.286980 45.727225
12 72.391689 61.123069
13 75.711417 74.267542
DEMAND_SECTION
1 0
2 5
3 5
4 5
5 6
6 6
7 8
8 3
9 6
10 6
11 7
12 6
13 5
DEPOT_SECTION
1
-1
EOF
